(set-logic QF_S)
(declare-fun var0 () String)
(assert (RegexIn var0 (RegexConcat (RegexStar (RegexStar (Str2Reg "0"))) (RegexConcat (RegexUnion (RegexUnion (Str2Reg "1") (Str2Reg "222")) (RegexUnion (Str2Reg "3") (Str2Reg "444"))) (RegexConcat (RegexUnion (RegexUnion (Str2Reg "555") (Str2Reg "666")) (RegexUnion (Str2Reg "777") (Str2Reg "888"))) (RegexConcat (RegexPlus (RegexUnion (Str2Reg "9") (Str2Reg "a"))) (RegexConcat (RegexUnion (RegexUnion (Str2Reg "bb") (Str2Reg "c")) (RegexUnion (Str2Reg "ddd") (Str2Reg "eee"))) (RegexConcat (RegexUnion (RegexPlus (Str2Reg "fff")) (RegexPlus (Str2Reg "gg"))) (RegexConcat (RegexStar (RegexStar (Str2Reg "h"))) (RegexConcat (RegexPlus (RegexUnion (Str2Reg "i") (Str2Reg "j"))) (RegexConcat (RegexUnion (RegexPlus (Str2Reg "kk")) (RegexPlus (Str2Reg "ll"))) (RegexConcat (RegexPlus (RegexPlus (Str2Reg "mm"))) (RegexConcat (RegexUnion (RegexStar (Str2Reg "nnn")) (RegexStar (Str2Reg "ooo"))) (RegexConcat (RegexUnion (RegexPlus (Str2Reg "ppp")) (RegexPlus (Str2Reg "qq"))) (RegexConcat (RegexUnion (RegexUnion (Str2Reg "r") (Str2Reg "s")) (RegexUnion (Str2Reg "tt") (Str2Reg "uuu"))) (RegexConcat (RegexUnion (RegexUnion (Str2Reg "vv") (Str2Reg "w")) (RegexUnion (Str2Reg "xx") (Str2Reg "yy"))) (RegexConcat (RegexPlus (RegexStar (Str2Reg "zzz"))) (RegexConcat (RegexStar (RegexStar (Str2Reg "AA"))) (RegexConcat (RegexPlus (RegexUnion (Str2Reg "B") (Str2Reg "CC"))) (RegexConcat (RegexUnion (RegexPlus (Str2Reg "DDD")) (RegexPlus (Str2Reg "E"))) (RegexConcat (RegexPlus (RegexStar (Str2Reg "FFF"))) (RegexConcat (RegexUnion (RegexStar (Str2Reg "G")) (RegexStar (Str2Reg "HHH"))) (RegexConcat (RegexPlus (RegexPlus (Str2Reg "III"))) (RegexConcat (RegexPlus (RegexStar (Str2Reg "JJJ"))) (RegexConcat (RegexPlus (RegexUnion (Str2Reg "KK") (Str2Reg "LL"))) (RegexConcat (RegexPlus (RegexStar (Str2Reg "MM"))) (RegexConcat (RegexPlus (RegexPlus (Str2Reg "NNN"))) (RegexConcat (RegexStar (RegexPlus (Str2Reg "O"))) (RegexConcat (RegexPlus (RegexUnion (Str2Reg "PP") (Str2Reg "QQ"))) (RegexConcat (RegexPlus (RegexUnion (Str2Reg "RRR") (Str2Reg "S"))) (RegexConcat (RegexStar (RegexUnion (Str2Reg "T") (Str2Reg "UU"))) (RegexConcat (RegexUnion (RegexStar (Str2Reg "VVV")) (RegexStar (Str2Reg "WW"))) (RegexConcat (RegexUnion (RegexPlus (Str2Reg "XX")) (RegexPlus (Str2Reg "Y"))) (RegexConcat (RegexUnion (RegexPlus (Str2Reg "ZZZ")) (RegexPlus (Str2Reg "!"))) (RegexConcat (RegexStar (RegexStar (Str2Reg "\"\""))) (RegexConcat (RegexStar (RegexUnion (Str2Reg "##") (Str2Reg "$"))) (RegexConcat (RegexStar (RegexUnion (Str2Reg "%%") (Str2Reg "&&&"))) (RegexConcat (RegexUnion (RegexPlus (Str2Reg "''")) (RegexPlus (Str2Reg "("))) (RegexConcat (RegexUnion (RegexUnion (Str2Reg ")") (Str2Reg "*")) (RegexUnion (Str2Reg "+++") (Str2Reg ",,,"))) (RegexConcat (RegexUnion (RegexUnion (Str2Reg "-") (Str2Reg "..")) (RegexUnion (Str2Reg "/") (Str2Reg ":"))) (RegexConcat (RegexPlus (RegexStar (Str2Reg ";"))) (RegexConcat (RegexPlus (RegexPlus (Str2Reg "<<"))) (RegexConcat (RegexStar (RegexStar (Str2Reg "=="))) (RegexConcat (RegexStar (RegexUnion (Str2Reg ">>") (Str2Reg "?"))) (RegexConcat (RegexUnion (RegexPlus (Str2Reg "@")) (RegexPlus (Str2Reg "["))) (RegexConcat (RegexPlus (RegexPlus (Str2Reg "\\"))) (RegexConcat (RegexStar (RegexStar (Str2Reg "]]"))) (RegexConcat (RegexUnion (RegexStar (Str2Reg "^^")) (RegexStar (Str2Reg "___"))) (RegexConcat (RegexPlus (RegexUnion (Str2Reg "``") (Str2Reg "{"))) (RegexConcat (RegexUnion (RegexPlus (Str2Reg "|")) (RegexPlus (Str2Reg "}"))) (RegexConcat (RegexPlus (RegexPlus (Str2Reg "~~"))) (RegexPlus (RegexUnion (Str2Reg "0") (Str2Reg "1"))))))))))))))))))))))))))))))))))))))))))))))))))))))
(check-sat)